3 2 3 
2 2 1 1 2 41 2 2 1 38 2 34 2 1 3 1 67 2 68 3 62 2 2 1 75 2 75 
2 2 1 2 1 31 2 32 2 3 1 49 2 51 3 56 2 1 2 2 39 3 37 2 2 1 23 3 20 
2 2 1 1 3 19 2 1 2 38 2 1 3 1 44 2 43 3 44 2 3 1 33 2 35 3 36 
